50 4
575
582
306
666
493
461
137
557
296
325
381
625
649
699
461
290
303
379
445
403
458
637
552
554
172
431
180
610
376
525
618
643
146
420
662
630
173
188
434
333
128
274
417
521
171
153
507
490
108
159
3160
5189
5777
6577
